Route #1: 1 16 29 8 21 54 13 15 35 32 26 12 50 36 14 1
Route #2: 1 17 37 53 38 23 45 3 39 1
Route #3: 1 57 49 6 61 19 55 10 24 28 42 22 56 1
Route #4: 1 52 11 9 30 7 33 62 44 1
Route #5: 1 41 58 51 18 59 27 1
Route #6: 1 48 25 4 43 46 1
Route #7: 1 60 34 5 40 47 31 1
Route #8: 1 2 20 1
cost 1659.7036559954672